% Auto-generated by scripts/generate_dzn.py
% problem_type   = regex
% instance       = regex_99
% source_json    = instances_json/2_high_blowup/regex_99.json
% blowup         = 24.09090909090909
% representation = DFA

mode = 0;

var_count = 16;
Q = 265;
S = 3;
q0 = 1;
F = {152, 153, 154, 155, 156, 157, 158, 159, 160, 161, 162, 163, 164, 165, 166, 167, 168, 169, 170, 171, 172, 173, 174, 175, 176, 177, 178, 179, 180, 181, 182, 183, 184, 185, 186, 187, 188, 189, 190, 191, 192, 193, 194, 195, 196, 197, 198, 199, 200, 201, 202, 203, 204, 205, 206, 207, 208, 209, 210, 211, 212, 213, 214, 215, 216, 217, 218, 219, 220, 221, 222, 223, 224, 225, 226, 227, 228, 229, 230, 231, 232, 233, 234, 235, 236, 237, 238, 239, 240, 241, 242, 243, 244, 245, 246, 247, 248, 249, 250, 251, 252, 253, 254, 255, 256, 257, 258, 259, 260, 261, 262, 263, 264, 265};
d_dfa = array2d(1..265, 1..3, [
  1, 2, 1,
  1, 3, 1,
  4, 5, 4,
  6, 7, 6,
  8, 9, 8,
  10, 11, 10,
  10, 12, 10,
  13, 14, 13,
  15, 16, 15,
  17, 18, 17,
  17, 19, 17,
  20, 21, 20,
  22, 23, 22,
  22, 24, 22,
  25, 26, 25,
  27, 28, 27,
  29, 30, 29,
  29, 31, 29,
  32, 33, 32,
  34, 35, 34,
  36, 37, 36,
  38, 39, 38,
  38, 40, 38,
  41, 42, 41,
  43, 44, 43,
  43, 45, 43,
  46, 47, 46,
  48, 49, 48,
  50, 51, 50,
  50, 52, 50,
  53, 54, 53,
  55, 56, 55,
  57, 58, 57,
  59, 60, 59,
  59, 61, 59,
  62, 63, 62,
  64, 65, 64,
  66, 67, 66,
  66, 68, 66,
  69, 70, 69,
  71, 72, 71,
  73, 74, 73,
  75, 76, 75,
  75, 77, 75,
  78, 79, 78,
  80, 81, 80,
  80, 82, 80,
  83, 84, 83,
  85, 86, 85,
  87, 88, 87,
  87, 89, 87,
  90, 91, 90,
  92, 93, 92,
  94, 95, 94,
  96, 97, 96,
  96, 98, 96,
  99, 100, 99,
  101, 102, 101,
  103, 104, 103,
  103, 105, 103,
  106, 107, 106,
  108, 109, 108,
  108, 110, 108,
  111, 112, 111,
  113, 114, 113,
  115, 116, 115,
  115, 117, 115,
  118, 119, 118,
  120, 121, 120,
  122, 123, 122,
  124, 125, 124,
  124, 126, 124,
  127, 128, 127,
  129, 130, 129,
  131, 132, 131,
  131, 133, 131,
  134, 135, 134,
  136, 137, 136,
  138, 139, 138,
  140, 141, 140,
  140, 142, 140,
  143, 144, 143,
  145, 146, 145,
  145, 147, 145,
  148, 149, 148,
  150, 151, 150,
  152, 153, 152,
  152, 154, 152,
  155, 156, 155,
  157, 158, 157,
  159, 160, 159,
  161, 162, 161,
  161, 163, 161,
  164, 165, 164,
  166, 167, 166,
  168, 169, 168,
  168, 170, 168,
  171, 172, 171,
  173, 174, 173,
  173, 175, 173,
  176, 177, 176,
  178, 179, 178,
  180, 181, 180,
  180, 182, 180,
  183, 184, 183,
  185, 186, 185,
  187, 188, 187,
  189, 190, 189,
  189, 191, 189,
  192, 193, 192,
  194, 195, 194,
  194, 196, 194,
  197, 198, 197,
  199, 200, 199,
  201, 202, 201,
  201, 203, 201,
  204, 205, 204,
  206, 207, 206,
  208, 209, 208,
  210, 211, 210,
  210, 212, 210,
  213, 214, 213,
  215, 216, 215,
  217, 218, 217,
  217, 219, 217,
  220, 221, 220,
  222, 223, 222,
  222, 224, 222,
  225, 226, 225,
  227, 228, 227,
  229, 230, 229,
  229, 231, 229,
  232, 233, 232,
  234, 235, 234,
  236, 237, 236,
  238, 239, 238,
  238, 240, 238,
  241, 242, 241,
  243, 244, 243,
  245, 246, 245,
  245, 247, 245,
  248, 249, 248,
  250, 251, 250,
  252, 253, 252,
  254, 255, 254,
  254, 256, 254,
  257, 258, 257,
  259, 260, 259,
  259, 261, 259,
  262, 263, 262,
  264, 265, 264,
  1, 2, 1,
  1, 3, 1,
  4, 5, 4,
  6, 7, 6,
  8, 9, 8,
  10, 11, 10,
  10, 12, 10,
  13, 14, 13,
  15, 16, 15,
  17, 18, 17,
  17, 19, 17,
  20, 21, 20,
  22, 23, 22,
  22, 24, 22,
  25, 26, 25,
  27, 28, 27,
  29, 30, 29,
  29, 31, 29,
  32, 33, 32,
  34, 35, 34,
  36, 37, 36,
  38, 39, 38,
  38, 40, 38,
  41, 42, 41,
  43, 44, 43,
  43, 45, 43,
  46, 47, 46,
  48, 49, 48,
  50, 51, 50,
  50, 52, 50,
  53, 54, 53,
  55, 56, 55,
  57, 58, 57,
  59, 60, 59,
  59, 61, 59,
  62, 63, 62,
  64, 65, 64,
  66, 67, 66,
  66, 68, 66,
  69, 70, 69,
  71, 72, 71,
  73, 74, 73,
  75, 76, 75,
  75, 77, 75,
  78, 79, 78,
  80, 81, 80,
  80, 82, 80,
  83, 84, 83,
  85, 86, 85,
  152, 153, 152,
  152, 154, 152,
  155, 156, 155,
  157, 158, 157,
  159, 160, 159,
  161, 162, 161,
  161, 163, 161,
  164, 165, 164,
  166, 167, 166,
  168, 169, 168,
  168, 170, 168,
  171, 172, 171,
  173, 174, 173,
  173, 175, 173,
  176, 177, 176,
  178, 179, 178,
  180, 181, 180,
  180, 182, 180,
  183, 184, 183,
  185, 186, 185,
  187, 188, 187,
  189, 190, 189,
  189, 191, 189,
  192, 193, 192,
  194, 195, 194,
  194, 196, 194,
  197, 198, 197,
  199, 200, 199,
  201, 202, 201,
  201, 203, 201,
  204, 205, 204,
  206, 207, 206,
  208, 209, 208,
  210, 211, 210,
  210, 212, 210,
  213, 214, 213,
  215, 216, 215,
  217, 218, 217,
  217, 219, 217,
  220, 221, 220,
  222, 223, 222,
  222, 224, 222,
  225, 226, 225,
  227, 228, 227,
  229, 230, 229,
  229, 231, 229,
  232, 233, 232,
  234, 235, 234,
  236, 237, 236,
  238, 239, 238,
  238, 240, 238,
  241, 242, 241,
  243, 244, 243,
  245, 246, 245,
  245, 247, 245,
  248, 249, 248,
  250, 251, 250,
  252, 253, 252,
  254, 255, 254,
  254, 256, 254,
  257, 258, 257,
  259, 260, 259,
  259, 261, 259,
  262, 263, 262,
  264, 265, 264
]);
d_nfa = array2d(1..265, 1..3, [
  {}, {}, {},
  {}, {}, {},
  {}, {}, {},
  {}, {}, {},
  {}, {}, {},
  {}, {}, {},
  {}, {}, {},
  {}, {}, {},
  {}, {}, {},
  {}, {}, {},
  {}, {}, {},
  {}, {}, {},
  {}, {}, {},
  {}, {}, {},
  {}, {}, {},
  {}, {}, {},
  {}, {}, {},
  {}, {}, {},
  {}, {}, {},
  {}, {}, {},
  {}, {}, {},
  {}, {}, {},
  {}, {}, {},
  {}, {}, {},
  {}, {}, {},
  {}, {}, {},
  {}, {}, {},
  {}, {}, {},
  {}, {}, {},
  {}, {}, {},
  {}, {}, {},
  {}, {}, {},
  {}, {}, {},
  {}, {}, {},
  {}, {}, {},
  {}, {}, {},
  {}, {}, {},
  {}, {}, {},
  {}, {}, {},
  {}, {}, {},
  {}, {}, {},
  {}, {}, {},
  {}, {}, {},
  {}, {}, {},
  {}, {}, {},
  {}, {}, {},
  {}, {}, {},
  {}, {}, {},
  {}, {}, {},
  {}, {}, {},
  {}, {}, {},
  {}, {}, {},
  {}, {}, {},
  {}, {}, {},
  {}, {}, {},
  {}, {}, {},
  {}, {}, {},
  {}, {}, {},
  {}, {}, {},
  {}, {}, {},
  {}, {}, {},
  {}, {}, {},
  {}, {}, {},
  {}, {}, {},
  {}, {}, {},
  {}, {}, {},
  {}, {}, {},
  {}, {}, {},
  {}, {}, {},
  {}, {}, {},
  {}, {}, {},
  {}, {}, {},
  {}, {}, {},
  {}, {}, {},
  {}, {}, {},
  {}, {}, {},
  {}, {}, {},
  {}, {}, {},
  {}, {}, {},
  {}, {}, {},
  {}, {}, {},
  {}, {}, {},
  {}, {}, {},
  {}, {}, {},
  {}, {}, {},
  {}, {}, {},
  {}, {}, {},
  {}, {}, {},
  {}, {}, {},
  {}, {}, {},
  {}, {}, {},
  {}, {}, {},
  {}, {}, {},
  {}, {}, {},
  {}, {}, {},
  {}, {}, {},
  {}, {}, {},
  {}, {}, {},
  {}, {}, {},
  {}, {}, {},
  {}, {}, {},
  {}, {}, {},
  {}, {}, {},
  {}, {}, {},
  {}, {}, {},
  {}, {}, {},
  {}, {}, {},
  {}, {}, {},
  {}, {}, {},
  {}, {}, {},
  {}, {}, {},
  {}, {}, {},
  {}, {}, {},
  {}, {}, {},
  {}, {}, {},
  {}, {}, {},
  {}, {}, {},
  {}, {}, {},
  {}, {}, {},
  {}, {}, {},
  {}, {}, {},
  {}, {}, {},
  {}, {}, {},
  {}, {}, {},
  {}, {}, {},
  {}, {}, {},
  {}, {}, {},
  {}, {}, {},
  {}, {}, {},
  {}, {}, {},
  {}, {}, {},
  {}, {}, {},
  {}, {}, {},
  {}, {}, {},
  {}, {}, {},
  {}, {}, {},
  {}, {}, {},
  {}, {}, {},
  {}, {}, {},
  {}, {}, {},
  {}, {}, {},
  {}, {}, {},
  {}, {}, {},
  {}, {}, {},
  {}, {}, {},
  {}, {}, {},
  {}, {}, {},
  {}, {}, {},
  {}, {}, {},
  {}, {}, {},
  {}, {}, {},
  {}, {}, {},
  {}, {}, {},
  {}, {}, {},
  {}, {}, {},
  {}, {}, {},
  {}, {}, {},
  {}, {}, {},
  {}, {}, {},
  {}, {}, {},
  {}, {}, {},
  {}, {}, {},
  {}, {}, {},
  {}, {}, {},
  {}, {}, {},
  {}, {}, {},
  {}, {}, {},
  {}, {}, {},
  {}, {}, {},
  {}, {}, {},
  {}, {}, {},
  {}, {}, {},
  {}, {}, {},
  {}, {}, {},
  {}, {}, {},
  {}, {}, {},
  {}, {}, {},
  {}, {}, {},
  {}, {}, {},
  {}, {}, {},
  {}, {}, {},
  {}, {}, {},
  {}, {}, {},
  {}, {}, {},
  {}, {}, {},
  {}, {}, {},
  {}, {}, {},
  {}, {}, {},
  {}, {}, {},
  {}, {}, {},
  {}, {}, {},
  {}, {}, {},
  {}, {}, {},
  {}, {}, {},
  {}, {}, {},
  {}, {}, {},
  {}, {}, {},
  {}, {}, {},
  {}, {}, {},
  {}, {}, {},
  {}, {}, {},
  {}, {}, {},
  {}, {}, {},
  {}, {}, {},
  {}, {}, {},
  {}, {}, {},
  {}, {}, {},
  {}, {}, {},
  {}, {}, {},
  {}, {}, {},
  {}, {}, {},
  {}, {}, {},
  {}, {}, {},
  {}, {}, {},
  {}, {}, {},
  {}, {}, {},
  {}, {}, {},
  {}, {}, {},
  {}, {}, {},
  {}, {}, {},
  {}, {}, {},
  {}, {}, {},
  {}, {}, {},
  {}, {}, {},
  {}, {}, {},
  {}, {}, {},
  {}, {}, {},
  {}, {}, {},
  {}, {}, {},
  {}, {}, {},
  {}, {}, {},
  {}, {}, {},
  {}, {}, {},
  {}, {}, {},
  {}, {}, {},
  {}, {}, {},
  {}, {}, {},
  {}, {}, {},
  {}, {}, {},
  {}, {}, {},
  {}, {}, {},
  {}, {}, {},
  {}, {}, {},
  {}, {}, {},
  {}, {}, {},
  {}, {}, {},
  {}, {}, {},
  {}, {}, {},
  {}, {}, {},
  {}, {}, {},
  {}, {}, {},
  {}, {}, {},
  {}, {}, {},
  {}, {}, {},
  {}, {}, {},
  {}, {}, {},
  {}, {}, {},
  {}, {}, {},
  {}, {}, {},
  {}, {}, {},
  {}, {}, {},
  {}, {}, {},
  {}, {}, {},
  {}, {}, {},
  {}, {}, {}
]);
